7570
7775
7935
7839
7705
7760
7815
7716
7669
7681
7805
7761
7810
7698
7814
7759
7792
7782
7882
7860
7778
7776
7705
7646
7724
7844
7605
7880
7751
7793
7803
7871
7683
7761
7694
7705
7771
7738
7816
7771
7801
7685
7736
7771
7699
7663
7771
7674
7709
7726
7792
7767
7619
7794
7727
7792
7848
7746
7841
7816
7743
7776
7703
7809
7782
7957
7718
7741
7723
7780
7779
7802
7781
7810
7743
7793
7797
7821
7791
7592
7721
7804
7819
7678
7827
7685
7757
7813
7807
7759
7827
7788
7848
7724
7852
7767
7818
7792
7695
7838
